LAMMPS (20 Nov 2019)
units real
atom_style full

read_restart restart_vap.250K
  restoring atom style full from restart
  orthogonal box = (-22.4613 -23.3424 -22.0074) to (22.4613 23.3424 22.0074)
  1 by 1 by 1 MPI processor grid
  restoring pair style lj/cut/coul/long from restart
  restoring bond style harmonic from restart
  restoring angle style harmonic from restart
  8640 atoms
  5760 bonds
  2880 angles
  2 = max # of 1-2 neighbors
  1 = max # of 1-3 neighbors
  1 = max # of 1-4 neighbors
  2 = max # of special neighbors
  special bonds CPU = 0.00836296 secs
  read_restart CPU = 0.0164221 secs

include forcefield.SPCE
# Original model from Berendsen et al, J Phys Chem 91:6269 (1987)
# Charges and geometry are specified in the "data." file.

mass 1 1.00794 # H
mass 2 15.9994 # O

pair_style lj/cut/coul/long 10.0
pair_modify tail yes
kspace_style pppm 1.0e-5

pair_coeff 1 1 0.00000 0.000
pair_coeff 1 2 0.00000 0.000
pair_coeff 2 2 0.15535 3.166

bond_style harmonic
bond_coeff 1 0.0 1.0

angle_style harmonic
angle_coeff 1 0.0 109.47

pair_modify tail no

group hydrogen type 1
5760 atoms in group hydrogen
group oxygen type 2
2880 atoms in group oxygen

neighbor 2.0 bin
neigh_modify every 1 delay 0 check yes

timestep 2.0

fix constrain all shake 1.0e-4 100 0 b 1 a 1
  0 = # of size 2 clusters
  0 = # of size 3 clusters
  0 = # of size 4 clusters
  2880 = # of frozen angles
  find clusters CPU = 0.0049997 secs

# Thermodynamic output
thermo_style custom step temp etotal enthalpy
thermo 100

variable T equal 300

# Trajectory output
dump trj all atom 10 ice_$TK.lammpstrj
dump trj all atom 10 ice_300K.lammpstrj

# fix 1 all nvt temp $T $T 200.0

#fix 2 all deform 1 x scale 10 y scale 10 z scale 10

fix 1 all npt temp $T $T 100.0 iso 1.0 1.0 200.0
fix 1 all npt temp 300 $T 100.0 iso 1.0 1.0 200.0
fix 1 all npt temp 300 300 100.0 iso 1.0 1.0 200.0

run 20000
PPPM initialization ...
  using 12-bit tables for long-range coulomb (src/kspace.cpp:323)
  G vector (1/distance) = 0.303049
  grid = 40 40 36
  stencil order = 5
  estimated absolute RMS force accuracy = 0.00335075
  estimated relative force accuracy = 1.00907e-05
  using double precision FFTW3
  3d grid and FFT values/proc = 94987 57600
Unused restart file global fix info:
  fix style: nvt, fix ID: 1
Neighbor list info ...
  update every 1 steps, delay 0 steps, check yes
  max neighbors/atom: 2000, page size: 100000
  master list distance cutoff = 12
  ghost atom cutoff = 12
  binsize = 6, bins = 8 8 8
  1 neighbor lists, perpetual/occasional/extra = 1 0 0
  (1) pair lj/cut/coul/long, perpetual
      attributes: half, newton on
      pair build: half/bin/newton
      stencil: half/bin/3d/newton
      bin: standard
Per MPI rank memory allocation (min/avg/max) = 37.23 | 37.23 | 37.23 Mbytes
Step Temp TotEng Enthalpy 
  110000    249.58427   -32613.031    -33228.87 
  110100    268.65191   -31889.737   -31795.877 
  110200    284.53104    -31018.61   -31115.875 
  110300    300.56372    -30306.83   -30707.132 
  110400    306.75526   -30082.505    -30248.18 
  110500    302.90819   -30351.028    -30268.19 
  110600    292.43733    -30494.73   -30491.305 
  110700    299.87859   -30221.512   -30471.689 
  110800    301.25669   -30142.412   -30185.431 
  110900    301.22308   -30215.844   -30365.126 
  111000      294.308   -30313.161   -30513.816 
  111100    299.98334   -30215.804   -29857.687 
  111200    298.36919   -30152.676   -30101.071 
  111300    295.87587   -30083.473    -30280.18 
  111400    299.09604   -30146.763   -30403.874 
  111500     301.8762   -30249.984   -29933.674 
  111600    292.09447   -30382.931     -30238.9 
  111700    305.05242   -30171.099   -30210.021 
  111800    293.65285   -30243.106   -30412.951 
  111900    306.29909   -30103.728   -29740.308 
  112000    300.39636   -30109.383   -29655.355 
  112100    294.76974   -30225.479   -29604.222 
  112200    297.79381   -30129.809   -30205.438 
  112300    300.50067   -30166.159    -30727.46 
  112400     300.7581   -30155.466    -30389.94 
  112500    298.09611   -30314.397   -30426.346 
  112600    294.98052   -30199.999   -30237.308 
  112700    305.28195   -30054.678   -30478.088 
  112800    299.06481   -30164.252   -29743.888 
  112900    298.37778   -30193.243   -30118.551 
  113000     299.1687   -30068.084   -30193.162 
  113100    302.49256   -30021.587   -29651.395 
  113200    294.80346   -30110.405   -30106.509 
  113300    293.76297   -30170.938    -30172.61 
  113400    305.76182   -29981.501   -30184.442 
  113500    298.51575   -30093.324   -30537.167 
  113600    300.99645   -30107.838   -30166.283 
  113700    298.13768   -29961.612   -30054.115 
  113800    305.11498   -29847.526   -30249.882 
  113900    298.01701   -29969.827   -29456.093 
  114000    300.14978   -30019.048   -29989.932 
  114100    299.93569   -29820.559   -29881.427 
  114200    300.66031   -29915.196   -29603.766 
  114300    301.16215   -29982.418   -29865.738 
  114400    295.77739   -30110.298   -29888.662 
  114500    299.34165   -29921.727   -29744.353 
  114600    298.94833   -29832.724   -29740.385 
  114700    298.42301   -29771.537   -29891.582 
  114800    295.51931   -29984.323   -29914.395 
  114900    302.07869   -29864.746   -30294.691 
  115000    300.78339   -30005.586   -30229.518 
  115100    293.64479   -29980.071   -30435.642 
  115200    300.91501   -29836.526   -29619.759 
  115300    301.89959   -29745.962   -29728.361 
  115400    295.88574   -29952.678   -30534.103 
  115500    298.40106    -29803.84   -29342.008 
  115600    295.93924   -29729.405   -29700.466 
  115700    299.43269   -29606.871   -29414.572 
  115800    304.31128   -29483.064   -29655.019 
  115900    305.70668   -29648.027   -29429.234 
  116000    299.85566     -29702.5   -29747.039 
  116100    303.64565   -29525.242   -30103.631 
  116200    295.32288   -29480.743   -29453.808 
  116300    302.19281   -29540.965   -29591.617 
  116400    303.28134   -29574.714   -29823.532 
  116500    297.51373    -29417.62   -29654.127 
  116600    299.15555   -29489.772   -29176.546 
  116700    304.51187   -29317.511   -29214.969 
  116800    301.09084   -29390.109   -29202.151 
  116900    294.72761   -29466.953   -29735.922 
  117000    299.71253   -29389.337   -29605.014 
  117100    303.00732    -29290.53   -29187.937 
  117200    299.75443   -29378.116   -29100.312 
  117300    300.49196   -29364.507   -29611.422 
  117400    301.28793   -29205.488   -29028.512 
  117500    303.93829   -29195.019   -29221.704 
  117600    302.94325   -29280.337    -29612.04 
  117700     300.4186   -29083.134   -28816.845 
  117800    294.26017   -29055.935   -29491.853 
  117900    296.24762   -29165.563   -28799.165 
  118000    297.83513   -29346.874   -29085.809 
  118100    292.41964    -29139.39   -29741.119 
  118200    301.14212   -28981.427   -28670.642 
  118300     302.0999   -28822.177   -29053.433 
  118400    308.09431   -28814.558   -28614.132 
  118500    298.31168   -28977.249   -29372.838 
  118600     298.3342    -28962.23   -28805.105 
  118700    301.48054   -28861.369   -28597.096 
  118800    299.92051   -29015.877    -29362.23 
  118900    301.97692   -28836.976   -28805.837 
  119000    301.20513   -28840.588    -28928.22 
  119100    296.84757   -28976.935   -28879.413 
  119200    305.07364   -28793.709   -28623.882 
  119300    296.51707   -28781.615    -28900.88 
  119400    298.83519   -29001.319    -28643.23 
  119500    297.46607    -28915.43   -29601.135 
  119600     298.6322   -28810.588   -28605.923 
  119700    295.91301   -28763.537   -28700.987 
  119800    301.14876   -28694.403   -29160.439 
  119900    301.56685   -28513.528   -27929.767 
  120000    303.09754   -28494.389   -28619.345 
  120100     293.8742   -28649.942   -28854.512 
  120200      298.714   -28590.727   -28630.779 
  120300    297.30745   -28438.949   -28556.952 
  120400    304.42982     -28217.7   -28273.234 
  120500    302.48587   -28267.204   -28131.753 
  120600    296.26321   -28375.593   -28578.498 
  120700    300.46786   -28350.286    -28199.71 
  120800    304.12909   -28321.989   -28135.261 
  120900    292.96459   -28465.901   -28491.494 
  121000    300.15246    -28295.76   -28352.233 
  121100    297.15253   -28342.512    -28452.75 
  121200    298.27267   -28444.211   -27917.695 
  121300    295.93926   -28305.613   -28534.504 
  121400    300.41516   -28188.684   -28187.606 
  121500    297.08059   -28179.705   -28482.751 
  121600    297.93496   -28369.067   -28166.935 
  121700      303.658    -28180.89   -28747.714 
  121800    302.46632   -28148.165   -27965.147 
  121900    296.21004   -28210.092   -28190.425 
  122000    299.67693   -28277.198   -28166.533 
  122100    307.83924   -28059.534   -28376.447 
  122200    300.80832     -28125.8   -28081.862 
  122300      298.125   -28095.514       -28095 
  122400    299.53624   -27979.631   -27618.459 
  122500    297.33966   -28123.557   -28158.354 
  122600     302.2465   -27976.104   -28241.897 
  122700    303.92549   -27932.307   -27947.576 
  122800    291.67887   -28035.796   -28452.531 
  122900    299.35155   -27865.855   -27883.836 
  123000    300.18885   -27827.391   -27941.522 
  123100    301.17238   -28044.462   -28521.986 
  123200    296.10183   -27972.311   -27895.786 
  123300    301.51955   -27901.193   -27450.942 
  123400    298.46789   -27704.719   -28321.878 
  123500    299.71102   -27773.067   -27845.117 
  123600    300.22255    -27797.04   -27714.796 
  123700    295.73024   -27947.294   -28003.808 
  123800    298.63628   -27889.134   -27657.498 
  123900    306.92887   -27708.125   -27808.086 
  124000    298.33314    -27705.47   -28174.616 
  124100    296.38893   -27751.935    -27594.62 
  124200      301.933   -27673.084   -27810.015 
  124300    294.44865   -27712.852   -27283.019 
  124400    301.63485   -27780.322   -27852.585 
  124500    297.20643   -27545.255   -27490.031 
  124600    302.98457   -27555.026   -27455.802 
  124700    295.01674   -27666.531   -27266.859 
  124800    295.31005   -27572.353   -27559.912 
  124900    299.98702   -27482.366   -27573.218 
  125000    296.31697   -27481.613    -27603.76 
  125100    306.32273   -27254.205    -27028.16 
  125200    297.67645    -27340.98   -27772.037 
  125300    300.33195   -27339.932   -26609.966 
  125400    303.79821   -27226.784   -27182.799 
  125500    293.41117   -27484.205     -27458.8 
  125600    303.83645   -27325.221   -26968.509 
  125700    299.47593   -27316.333   -27234.623 
  125800    299.53155   -27327.298   -27341.067 
  125900    305.74805   -27226.903   -26974.488 
  126000    294.53725   -27383.159   -27479.423 
  126100    300.80679   -27203.334   -27217.129 
  126200    294.52731   -27218.058   -27485.439 
  126300    305.20238   -27017.757   -26880.878 
  126400    303.60036   -27076.046   -27222.687 
  126500    295.48142   -27163.037   -26993.596 
  126600    300.82257   -27027.712   -27394.611 
  126700    297.17839   -27184.294   -26688.149 
  126800    304.50413   -27155.292   -27003.284 
  126900    306.31559    -26971.72   -27437.363 
  127000    297.92864   -27142.911    -27324.95 
  127100    299.23406   -27106.959   -27329.551 
  127200    306.04259   -26946.392   -26902.392 
  127300    301.43776   -27087.431   -27435.036 
  127400    302.58554   -27060.261    -26608.47 
  127500    302.93555    -26935.01   -27150.607 
  127600    305.71067   -26899.914   -26742.223 
  127700    300.19606   -27096.133   -27173.519 
  127800    298.12649   -27117.693   -27140.367 
  127900    305.62539   -26994.292   -27339.652 
  128000    303.42719     -26945.9   -26479.225 
  128100    296.80586   -27135.863   -27351.057 
  128200    301.28672   -27000.875   -27211.757 
  128300    302.70518   -27034.599   -27113.851 
  128400    294.44016   -27146.106   -26802.364 
  128500    300.25766   -26932.304   -26821.264 
  128600    292.15534   -26997.534   -27160.246 
  128700    302.92936   -26848.319   -26983.778 
  128800    300.88382   -26854.741   -27088.085 
  128900    299.27015   -26847.539   -27150.113 
  129000    301.41648   -26765.163   -26553.691 
  129100    298.00925   -26923.162   -26961.123 
  129200    304.04878   -26916.308   -26973.178 
  129300    298.40375   -26872.095   -27242.853 
  129400    297.99616   -27054.925   -27086.391 
  129500    295.20235   -26886.324   -26856.138 
  129600    300.12813   -26846.053   -26169.674 
  129700    289.96027   -26877.848   -27211.438 
  129800    304.49952   -26624.999   -26591.017 
  129900    300.13598    -26697.52   -26856.275 
  130000    295.17913   -26814.544   -26278.448 
Loop time of 2151.88 on 1 procs for 20000 steps with 8640 atoms

Performance: 1.606 ns/day, 14.944 hours/ns, 9.294 timesteps/s
99.9% CPU use with 1 MPI tasks x no OpenMP threads

MPI task timing breakdown:
Section |  min time  |  avg time  |  max time  |%varavg| %total
---------------------------------------------------------------
Pair    | 1389.4     | 1389.4     | 1389.4     |   0.0 | 64.57
Bond    | 0.041319   | 0.041319   | 0.041319   |   0.0 |  0.00
Kspace  | 282.53     | 282.53     | 282.53     |   0.0 | 13.13
Neigh   | 216.48     | 216.48     | 216.48     |   0.0 | 10.06
Comm    | 5.8923     | 5.8923     | 5.8923     |   0.0 |  0.27
Output  | 22.635     | 22.635     | 22.635     |   0.0 |  1.05
Modify  | 232.81     | 232.81     | 232.81     |   0.0 | 10.82
Other   |            | 2.084      |            |       |  0.10

Nlocal:    8640 ave 8640 max 8640 min
Histogram: 1 0 0 0 0 0 0 0 0 0
Nghost:    22880 ave 22880 max 22880 min
Histogram: 1 0 0 0 0 0 0 0 0 0
Neighs:    3.11032e+06 ave 3.11032e+06 max 3.11032e+06 min
Histogram: 1 0 0 0 0 0 0 0 0 0

Total # of neighbors = 3110318
Ave neighs/atom = 359.991
Ave special neighs/atom = 2
Neighbor list builds = 1973
Dangerous builds = 0
write_restart restart_vap.$TK
write_restart restart_vap.300K
PPPM initialization ...
  using 12-bit tables for long-range coulomb (src/kspace.cpp:323)
  G vector (1/distance) = 0.3022
  grid = 36 40 36
  stencil order = 5
  estimated absolute RMS force accuracy = 0.00363937
  estimated relative force accuracy = 1.09599e-05
  using double precision FFTW3
  3d grid and FFT values/proc = 86903 51840

Total wall time: 0:35:52
